NAME : CMT9
COMMENT : 1162.55
TYPE : CVRP
DIMENSION : 151
EDGE_WEIGHT_TYPE : EUC_2D
CAPACITY : 200
DISTANCE : 200.00000
SERVICE_TIME : 10.0
NODE_COORD_SECTION
1 35.00000 35.00000
2 37.00000 52.00000
3 49.00000 49.00000
4 52.00000 64.00000
5 20.00000 26.00000
6 40.00000 30.00000
7 21.00000 47.00000
8 17.00000 63.00000
9 31.00000 62.00000
10 52.00000 33.00000
11 51.00000 21.00000
12 42.00000 41.00000
13 31.00000 32.00000
14 5.00000 25.00000
15 12.00000 42.00000
16 36.00000 16.00000
17 52.00000 41.00000
18 27.00000 23.00000
19 17.00000 33.00000
20 13.00000 13.00000
21 57.00000 58.00000
22 62.00000 42.00000
23 42.00000 57.00000
24 16.00000 57.00000
25 8.00000 52.00000
26 7.00000 38.00000
27 27.00000 68.00000
28 30.00000 48.00000
29 43.00000 67.00000
30 58.00000 48.00000
31 58.00000 27.00000
32 37.00000 69.00000
33 38.00000 46.00000
34 46.00000 10.00000
35 61.00000 33.00000
36 62.00000 63.00000
37 63.00000 69.00000
38 32.00000 22.00000
39 45.00000 35.00000
40 59.00000 15.00000
41 5.00000 6.00000
42 10.00000 17.00000
43 21.00000 10.00000
44 5.00000 64.00000
45 30.00000 15.00000
46 39.00000 10.00000
47 32.00000 39.00000
48 25.00000 32.00000
49 25.00000 55.00000
50 48.00000 28.00000
51 56.00000 37.00000
52 41.00000 49.00000
53 35.00000 17.00000
54 55.00000 45.00000
55 55.00000 20.00000
56 15.00000 30.00000
57 25.00000 30.00000
58 20.00000 50.00000
59 10.00000 43.00000
60 55.00000 60.00000
61 30.00000 60.00000
62 20.00000 65.00000
63 50.00000 35.00000
64 30.00000 25.00000
65 15.00000 10.00000
66 30.00000 5.00000
67 10.00000 20.00000
68 5.00000 30.00000
69 20.00000 40.00000
70 15.00000 60.00000
71 45.00000 65.00000
72 45.00000 20.00000
73 45.00000 10.00000
74 55.00000 5.00000
75 65.00000 35.00000
76 65.00000 20.00000
77 45.00000 30.00000
78 35.00000 40.00000
79 41.00000 37.00000
80 64.00000 42.00000
81 40.00000 60.00000
82 31.00000 52.00000
83 35.00000 69.00000
84 53.00000 52.00000
85 65.00000 55.00000
86 63.00000 65.00000
87 2.00000 60.00000
88 20.00000 20.00000
89 5.00000 5.00000
90 60.00000 12.00000
91 40.00000 25.00000
92 42.00000 7.00000
93 24.00000 12.00000
94 23.00000 3.00000
95 11.00000 14.00000
96 6.00000 38.00000
97 2.00000 48.00000
98 8.00000 56.00000
99 13.00000 52.00000
100 6.00000 68.00000
101 47.00000 47.00000
102 49.00000 58.00000
103 27.00000 43.00000
104 37.00000 31.00000
105 57.00000 29.00000
106 63.00000 23.00000
107 53.00000 12.00000
108 32.00000 12.00000
109 36.00000 26.00000
110 21.00000 24.00000
111 17.00000 34.00000
112 12.00000 24.00000
113 24.00000 58.00000
114 27.00000 69.00000
115 15.00000 77.00000
116 62.00000 77.00000
117 49.00000 73.00000
118 67.00000 5.00000
119 56.00000 39.00000
120 37.00000 47.00000
121 37.00000 56.00000
122 57.00000 68.00000
123 47.00000 16.00000
124 44.00000 17.00000
125 46.00000 13.00000
126 49.00000 11.00000
127 49.00000 42.00000
128 53.00000 43.00000
129 61.00000 52.00000
130 57.00000 48.00000
131 56.00000 37.00000
132 55.00000 54.00000
133 15.00000 47.00000
134 14.00000 37.00000
135 11.00000 31.00000
136 16.00000 22.00000
137 4.00000 18.00000
138 28.00000 18.00000
139 26.00000 52.00000
140 26.00000 35.00000
141 31.00000 67.00000
142 15.00000 19.00000
143 22.00000 22.00000
144 18.00000 24.00000
145 26.00000 27.00000
146 25.00000 24.00000
147 22.00000 27.00000
148 25.00000 21.00000
149 19.00000 21.00000
150 20.00000 26.00000
151 18.00000 18.00000
DEMAND_SECTION
1 0
2 7
3 30
4 16
5 9
6 21
7 15
8 19
9 23
10 11
11 5
12 19
13 29
14 23
15 21
16 10
17 15
18 3
19 41
20 9
21 28
22 8
23 8
24 16
25 10
26 28
27 7
28 15
29 14
30 6
31 19
32 11
33 12
34 23
35 26
36 17
37 6
38 9
39 15
40 14
41 7
42 27
43 13
44 11
45 16
46 10
47 5
48 25
49 17
50 18
51 10
52 10
53 7
54 13
55 19
56 26
57 3
58 5
59 9
60 16
61 16
62 12
63 19
64 23
65 20
66 8
67 19
68 2
69 12
70 17
71 9
72 11
73 18
74 29
75 3
76 6
77 17
78 16
79 16
80 9
81 21
82 27
83 23
84 11
85 14
86 8
87 5
88 8
89 16
90 31
91 9
92 5
93 5
94 7
95 18
96 16
97 1
98 27
99 36
100 30
101 13
102 10
103 9
104 14
105 18
106 2
107 6
108 7
109 18
110 28
111 3
112 13
113 19
114 10
115 9
116 20
117 25
118 25
119 36
120 6
121 5
122 15
123 25
124 9
125 8
126 18
127 13
128 14
129 3
130 23
131 6
132 26
133 16
134 11
135 7
136 41
137 35
138 26
139 9
140 15
141 3
142 1
143 2
144 22
145 27
146 20
147 11
148 12
149 10
150 9
151 17
DEPOT_SECTION
1
-1
EOF
